p cnf 625 2897
6 0
11 0
16 0
21 0
12 0
17 0
22 0
18 0
23 0
24 0
-6 -12 11 0
-6 -17 16 0
-6 -22 21 0
-11 -8 6 0
-11 -18 16 0
-11 -23 21 0
-16 -9 6 0
-16 -14 11 0
-16 -24 21 0
-21 -10 6 0
-21 -15 11 0
-21 -20 16 0
-2 -11 12 0
-2 -16 17 0
-2 -21 22 0
-12 -3 2 0
-12 -18 17 0
-12 -23 22 0
-17 -4 2 0
-17 -14 12 0
-17 -24 22 0
-22 -5 2 0
-22 -15 12 0
-22 -20 17 0
-3 -6 8 0
-3 -16 18 0
-3 -21 23 0
-8 -2 3 0
-8 -17 18 0
-8 -22 23 0
-18 -4 3 0
-18 -9 8 0
-18 -24 23 0
-23 -5 3 0
-23 -10 8 0
-23 -20 18 0
-4 -6 9 0
-4 -11 14 0
-4 -21 24 0
-9 -2 4 0
-9 -12 14 0
-9 -22 24 0
-14 -3 4 0
-14 -8 9 0
-14 -23 24 0
-24 -5 4 0
-24 -10 9 0
-24 -15 14 0
-5 -6 10 0
-5 -11 15 0
-5 -16 20 0
-10 -2 5 0
-10 -12 15 0
-10 -17 20 0
-15 -3 5 0
-15 -8 10 0
-15 -18 20 0
-20 -4 5 0
-20 -9 10 0
-20 -14 15 0
-31 -37 36 0
-31 -42 41 0
-31 -47 46 0
-36 -33 31 0
-36 -43 41 0
-36 -48 46 0
-41 -34 31 0
-41 -39 36 0
-41 -49 46 0
-46 -35 31 0
-46 -40 36 0
-46 -45 41 0
-27 -36 37 0
-27 -41 42 0
-27 -46 47 0
-37 -28 27 0
-37 -43 42 0
-37 -48 47 0
-42 -29 27 0
-42 -39 37 0
-42 -49 47 0
-47 -30 27 0
-47 -40 37 0
-47 -45 42 0
-28 -31 33 0
-28 -41 43 0
-28 -46 48 0
-33 -27 28 0
-33 -42 43 0
-33 -47 48 0
-43 -29 28 0
-43 -34 33 0
-43 -49 48 0
-48 -30 28 0
-48 -35 33 0
-48 -45 43 0
-29 -31 34 0
-29 -36 39 0
-29 -46 49 0
-34 -27 29 0
-34 -37 39 0
-34 -47 49 0
-39 -28 29 0
-39 -33 34 0
-39 -48 49 0
-49 -30 29 0
-49 -35 34 0
-49 -40 39 0
-30 -31 35 0
-30 -36 40 0
-30 -41 45 0
-35 -27 30 0
-35 -37 40 0
-35 -42 45 0
-40 -28 30 0
-40 -33 35 0
-40 -43 45 0
-45 -29 30 0
-45 -34 35 0
-45 -39 40 0
-56 -62 61 0
-56 -67 66 0
-56 -72 71 0
-61 -58 56 0
-61 -68 66 0
-61 -73 71 0
-66 -59 56 0
-66 -64 61 0
-66 -74 71 0
-71 -60 56 0
-71 -65 61 0
-71 -70 66 0
-52 -61 62 0
-52 -66 67 0
-52 -71 72 0
-62 -53 52 0
-62 -68 67 0
-62 -73 72 0
-67 -54 52 0
-67 -64 62 0
-67 -74 72 0
-72 -55 52 0
-72 -65 62 0
-72 -70 67 0
-53 -56 58 0
-53 -66 68 0
-53 -71 73 0
-58 -52 53 0
-58 -67 68 0
-58 -72 73 0
-68 -54 53 0
-68 -59 58 0
-68 -74 73 0
-73 -55 53 0
-73 -60 58 0
-73 -70 68 0
-54 -56 59 0
-54 -61 64 0
-54 -71 74 0
-59 -52 54 0
-59 -62 64 0
-59 -72 74 0
-64 -53 54 0
-64 -58 59 0
-64 -73 74 0
-74 -55 54 0
-74 -60 59 0
-74 -65 64 0
-55 -56 60 0
-55 -61 65 0
-55 -66 70 0
-60 -52 55 0
-60 -62 65 0
-60 -67 70 0
-65 -53 55 0
-65 -58 60 0
-65 -68 70 0
-70 -54 55 0
-70 -59 60 0
-70 -64 65 0
-81 -87 86 0
-81 -92 91 0
-81 -97 96 0
-86 -83 81 0
-86 -93 91 0
-86 -98 96 0
-91 -84 81 0
-91 -89 86 0
-91 -99 96 0
-96 -85 81 0
-96 -90 86 0
-96 -95 91 0
-77 -86 87 0
-77 -91 92 0
-77 -96 97 0
-87 -78 77 0
-87 -93 92 0
-87 -98 97 0
-92 -79 77 0
-92 -89 87 0
-92 -99 97 0
-97 -80 77 0
-97 -90 87 0
-97 -95 92 0
-78 -81 83 0
-78 -91 93 0
-78 -96 98 0
-83 -77 78 0
-83 -92 93 0
-83 -97 98 0
-93 -79 78 0
-93 -84 83 0
-93 -99 98 0
-98 -80 78 0
-98 -85 83 0
-98 -95 93 0
-79 -81 84 0
-79 -86 89 0
-79 -96 99 0
-84 -77 79 0
-84 -87 89 0
-84 -97 99 0
-89 -78 79 0
-89 -83 84 0
-89 -98 99 0
-99 -80 79 0
-99 -85 84 0
-99 -90 89 0
-80 -81 85 0
-80 -86 90 0
-80 -91 95 0
-85 -77 80 0
-85 -87 90 0
-85 -92 95 0
-90 -78 80 0
-90 -83 85 0
-90 -93 95 0
-95 -79 80 0
-95 -84 85 0
-95 -89 90 0
-106 -112 111 0
-106 -117 116 0
-106 -122 121 0
-111 -108 106 0
-111 -118 116 0
-111 -123 121 0
-116 -109 106 0
-116 -114 111 0
-116 -124 121 0
-121 -110 106 0
-121 -115 111 0
-121 -120 116 0
-102 -111 112 0
-102 -116 117 0
-102 -121 122 0
-112 -103 102 0
-112 -118 117 0
-112 -123 122 0
-117 -104 102 0
-117 -114 112 0
-117 -124 122 0
-122 -105 102 0
-122 -115 112 0
-122 -120 117 0
-103 -106 108 0
-103 -116 118 0
-103 -121 123 0
-108 -102 103 0
-108 -117 118 0
-108 -122 123 0
-118 -104 103 0
-118 -109 108 0
-118 -124 123 0
-123 -105 103 0
-123 -110 108 0
-123 -120 118 0
-104 -106 109 0
-104 -111 114 0
-104 -121 124 0
-109 -102 104 0
-109 -112 114 0
-109 -122 124 0
-114 -103 104 0
-114 -108 109 0
-114 -123 124 0
-124 -105 104 0
-124 -110 109 0
-124 -115 114 0
-105 -106 110 0
-105 -111 115 0
-105 -116 120 0
-110 -102 105 0
-110 -112 115 0
-110 -117 120 0
-115 -103 105 0
-115 -108 110 0
-115 -118 120 0
-120 -104 105 0
-120 -109 110 0
-120 -114 115 0
-131 -137 136 0
-131 -142 141 0
-131 -147 146 0
-136 -133 131 0
-136 -143 141 0
-136 -148 146 0
-141 -134 131 0
-141 -139 136 0
-141 -149 146 0
-146 -135 131 0
-146 -140 136 0
-146 -145 141 0
-127 -136 137 0
-127 -141 142 0
-127 -146 147 0
-137 -128 127 0
-137 -143 142 0
-137 -148 147 0
-142 -129 127 0
-142 -139 137 0
-142 -149 147 0
-147 -130 127 0
-147 -140 137 0
-147 -145 142 0
-128 -131 133 0
-128 -141 143 0
-128 -146 148 0
-133 -127 128 0
-133 -142 143 0
-133 -147 148 0
-143 -129 128 0
-143 -134 133 0
-143 -149 148 0
-148 -130 128 0
-148 -135 133 0
-148 -145 143 0
-129 -131 134 0
-129 -136 139 0
-129 -146 149 0
-134 -127 129 0
-134 -137 139 0
-134 -147 149 0
-139 -128 129 0
-139 -133 134 0
-139 -148 149 0
-149 -130 129 0
-149 -135 134 0
-149 -140 139 0
-130 -131 135 0
-130 -136 140 0
-130 -141 145 0
-135 -127 130 0
-135 -137 140 0
-135 -142 145 0
-140 -128 130 0
-140 -133 135 0
-140 -143 145 0
-145 -129 130 0
-145 -134 135 0
-145 -139 140 0
-156 -162 161 0
-156 -167 166 0
-156 -172 171 0
-161 -158 156 0
-161 -168 166 0
-161 -173 171 0
-166 -159 156 0
-166 -164 161 0
-166 -174 171 0
-171 -160 156 0
-171 -165 161 0
-171 -170 166 0
-152 -161 162 0
-152 -166 167 0
-152 -171 172 0
-162 -153 152 0
-162 -168 167 0
-162 -173 172 0
-167 -154 152 0
-167 -164 162 0
-167 -174 172 0
-172 -155 152 0
-172 -165 162 0
-172 -170 167 0
-153 -156 158 0
-153 -166 168 0
-153 -171 173 0
-158 -152 153 0
-158 -167 168 0
-158 -172 173 0
-168 -154 153 0
-168 -159 158 0
-168 -174 173 0
-173 -155 153 0
-173 -160 158 0
-173 -170 168 0
-154 -156 159 0
-154 -161 164 0
-154 -171 174 0
-159 -152 154 0
-159 -162 164 0
-159 -172 174 0
-164 -153 154 0
-164 -158 159 0
-164 -173 174 0
-174 -155 154 0
-174 -160 159 0
-174 -165 164 0
-155 -156 160 0
-155 -161 165 0
-155 -166 170 0
-160 -152 155 0
-160 -162 165 0
-160 -167 170 0
-165 -153 155 0
-165 -158 160 0
-165 -168 170 0
-170 -154 155 0
-170 -159 160 0
-170 -164 165 0
-181 -187 186 0
-181 -192 191 0
-181 -197 196 0
-186 -183 181 0
-186 -193 191 0
-186 -198 196 0
-191 -184 181 0
-191 -189 186 0
-191 -199 196 0
-196 -185 181 0
-196 -190 186 0
-196 -195 191 0
-177 -186 187 0
-177 -191 192 0
-177 -196 197 0
-187 -178 177 0
-187 -193 192 0
-187 -198 197 0
-192 -179 177 0
-192 -189 187 0
-192 -199 197 0
-197 -180 177 0
-197 -190 187 0
-197 -195 192 0
-178 -181 183 0
-178 -191 193 0
-178 -196 198 0
-183 -177 178 0
-183 -192 193 0
-183 -197 198 0
-193 -179 178 0
-193 -184 183 0
-193 -199 198 0
-198 -180 178 0
-198 -185 183 0
-198 -195 193 0
-179 -181 184 0
-179 -186 189 0
-179 -196 199 0
-184 -177 179 0
-184 -187 189 0
-184 -197 199 0
-189 -178 179 0
-189 -183 184 0
-189 -198 199 0
-199 -180 179 0
-199 -185 184 0
-199 -190 189 0
-180 -181 185 0
-180 -186 190 0
-180 -191 195 0
-185 -177 180 0
-185 -187 190 0
-185 -192 195 0
-190 -178 180 0
-190 -183 185 0
-190 -193 195 0
-195 -179 180 0
-195 -184 185 0
-195 -189 190 0
-206 -212 211 0
-206 -217 216 0
-206 -222 221 0
-211 -208 206 0
-211 -218 216 0
-211 -223 221 0
-216 -209 206 0
-216 -214 211 0
-216 -224 221 0
-221 -210 206 0
-221 -215 211 0
-221 -220 216 0
-202 -211 212 0
-202 -216 217 0
-202 -221 222 0
-212 -203 202 0
-212 -218 217 0
-212 -223 222 0
-217 -204 202 0
-217 -214 212 0
-217 -224 222 0
-222 -205 202 0
-222 -215 212 0
-222 -220 217 0
-203 -206 208 0
-203 -216 218 0
-203 -221 223 0
-208 -202 203 0
-208 -217 218 0
-208 -222 223 0
-218 -204 203 0
-218 -209 208 0
-218 -224 223 0
-223 -205 203 0
-223 -210 208 0
-223 -220 218 0
-204 -206 209 0
-204 -211 214 0
-204 -221 224 0
-209 -202 204 0
-209 -212 214 0
-209 -222 224 0
-214 -203 204 0
-214 -208 209 0
-214 -223 224 0
-224 -205 204 0
-224 -210 209 0
-224 -215 214 0
-205 -206 210 0
-205 -211 215 0
-205 -216 220 0
-210 -202 205 0
-210 -212 215 0
-210 -217 220 0
-215 -203 205 0
-215 -208 210 0
-215 -218 220 0
-220 -204 205 0
-220 -209 210 0
-220 -214 215 0
6 2 0
-6 -2 0
11 3 0
-11 -3 0
16 4 0
-16 -4 0
21 5 0
-21 -5 0
2 6 0
-2 -6 0
12 8 0
-12 -8 0
17 9 0
-17 -9 0
22 10 0
-22 -10 0
3 11 0
-3 -11 0
8 12 0
-8 -12 0
18 14 0
-18 -14 0
23 15 0
-23 -15 0
4 16 0
-4 -16 0
9 17 0
-9 -17 0
14 18 0
-14 -18 0
24 20 0
-24 -20 0
5 21 0
-5 -21 0
10 22 0
-10 -22 0
15 23 0
-15 -23 0
20 24 0
-20 -24 0
31 27 0
-31 -27 0
36 28 0
-36 -28 0
41 29 0
-41 -29 0
46 30 0
-46 -30 0
27 31 0
-27 -31 0
37 33 0
-37 -33 0
42 34 0
-42 -34 0
47 35 0
-47 -35 0
28 36 0
-28 -36 0
33 37 0
-33 -37 0
43 39 0
-43 -39 0
48 40 0
-48 -40 0
29 41 0
-29 -41 0
34 42 0
-34 -42 0
39 43 0
-39 -43 0
49 45 0
-49 -45 0
30 46 0
-30 -46 0
35 47 0
-35 -47 0
40 48 0
-40 -48 0
45 49 0
-45 -49 0
56 52 0
-56 -52 0
61 53 0
-61 -53 0
66 54 0
-66 -54 0
71 55 0
-71 -55 0
52 56 0
-52 -56 0
62 58 0
-62 -58 0
67 59 0
-67 -59 0
72 60 0
-72 -60 0
53 61 0
-53 -61 0
58 62 0
-58 -62 0
68 64 0
-68 -64 0
73 65 0
-73 -65 0
54 66 0
-54 -66 0
59 67 0
-59 -67 0
64 68 0
-64 -68 0
74 70 0
-74 -70 0
55 71 0
-55 -71 0
60 72 0
-60 -72 0
65 73 0
-65 -73 0
70 74 0
-70 -74 0
81 77 0
-81 -77 0
86 78 0
-86 -78 0
91 79 0
-91 -79 0
96 80 0
-96 -80 0
77 81 0
-77 -81 0
87 83 0
-87 -83 0
92 84 0
-92 -84 0
97 85 0
-97 -85 0
78 86 0
-78 -86 0
83 87 0
-83 -87 0
93 89 0
-93 -89 0
98 90 0
-98 -90 0
79 91 0
-79 -91 0
84 92 0
-84 -92 0
89 93 0
-89 -93 0
99 95 0
-99 -95 0
80 96 0
-80 -96 0
85 97 0
-85 -97 0
90 98 0
-90 -98 0
95 99 0
-95 -99 0
106 102 0
-106 -102 0
111 103 0
-111 -103 0
116 104 0
-116 -104 0
121 105 0
-121 -105 0
102 106 0
-102 -106 0
112 108 0
-112 -108 0
117 109 0
-117 -109 0
122 110 0
-122 -110 0
103 111 0
-103 -111 0
108 112 0
-108 -112 0
118 114 0
-118 -114 0
123 115 0
-123 -115 0
104 116 0
-104 -116 0
109 117 0
-109 -117 0
114 118 0
-114 -118 0
124 120 0
-124 -120 0
105 121 0
-105 -121 0
110 122 0
-110 -122 0
115 123 0
-115 -123 0
120 124 0
-120 -124 0
131 127 0
-131 -127 0
136 128 0
-136 -128 0
141 129 0
-141 -129 0
146 130 0
-146 -130 0
127 131 0
-127 -131 0
137 133 0
-137 -133 0
142 134 0
-142 -134 0
147 135 0
-147 -135 0
128 136 0
-128 -136 0
133 137 0
-133 -137 0
143 139 0
-143 -139 0
148 140 0
-148 -140 0
129 141 0
-129 -141 0
134 142 0
-134 -142 0
139 143 0
-139 -143 0
149 145 0
-149 -145 0
130 146 0
-130 -146 0
135 147 0
-135 -147 0
140 148 0
-140 -148 0
145 149 0
-145 -149 0
156 152 0
-156 -152 0
161 153 0
-161 -153 0
166 154 0
-166 -154 0
171 155 0
-171 -155 0
152 156 0
-152 -156 0
162 158 0
-162 -158 0
167 159 0
-167 -159 0
172 160 0
-172 -160 0
153 161 0
-153 -161 0
158 162 0
-158 -162 0
168 164 0
-168 -164 0
173 165 0
-173 -165 0
154 166 0
-154 -166 0
159 167 0
-159 -167 0
164 168 0
-164 -168 0
174 170 0
-174 -170 0
155 171 0
-155 -171 0
160 172 0
-160 -172 0
165 173 0
-165 -173 0
170 174 0
-170 -174 0
181 177 0
-181 -177 0
186 178 0
-186 -178 0
191 179 0
-191 -179 0
196 180 0
-196 -180 0
177 181 0
-177 -181 0
187 183 0
-187 -183 0
192 184 0
-192 -184 0
197 185 0
-197 -185 0
178 186 0
-178 -186 0
183 187 0
-183 -187 0
193 189 0
-193 -189 0
198 190 0
-198 -190 0
179 191 0
-179 -191 0
184 192 0
-184 -192 0
189 193 0
-189 -193 0
199 195 0
-199 -195 0
180 196 0
-180 -196 0
185 197 0
-185 -197 0
190 198 0
-190 -198 0
195 199 0
-195 -199 0
206 202 0
-206 -202 0
211 203 0
-211 -203 0
216 204 0
-216 -204 0
221 205 0
-221 -205 0
202 206 0
-202 -206 0
212 208 0
-212 -208 0
217 209 0
-217 -209 0
222 210 0
-222 -210 0
203 211 0
-203 -211 0
208 212 0
-208 -212 0
218 214 0
-218 -214 0
223 215 0
-223 -215 0
204 216 0
-204 -216 0
209 217 0
-209 -217 0
214 218 0
-214 -218 0
224 220 0
-224 -220 0
205 221 0
-205 -221 0
210 222 0
-210 -222 0
215 223 0
-215 -223 0
220 224 0
-220 -224 0
-401 -416 0
-401 -431 0
-401 -446 0
-401 -461 0
-401 -476 0
-401 -491 0
-401 -506 0
-416 -431 0
-416 -446 0
-416 -461 0
-416 -476 0
-416 -491 0
-416 -506 0
-431 -446 0
-431 -461 0
-431 -476 0
-431 -491 0
-431 -506 0
-446 -461 0
-446 -476 0
-446 -491 0
-446 -506 0
-461 -476 0
-461 -491 0
-461 -506 0
-476 -491 0
-476 -506 0
-491 -506 0
-402 -417 0
-402 -432 0
-402 -447 0
-402 -462 0
-402 -477 0
-402 -492 0
-402 -507 0
-417 -432 0
-417 -447 0
-417 -462 0
-417 -477 0
-417 -492 0
-417 -507 0
-432 -447 0
-432 -462 0
-432 -477 0
-432 -492 0
-432 -507 0
-447 -462 0
-447 -477 0
-447 -492 0
-447 -507 0
-462 -477 0
-462 -492 0
-462 -507 0
-477 -492 0
-477 -507 0
-492 -507 0
-403 -418 0
-403 -433 0
-403 -448 0
-403 -463 0
-403 -478 0
-403 -493 0
-403 -508 0
-418 -433 0
-418 -448 0
-418 -463 0
-418 -478 0
-418 -493 0
-418 -508 0
-433 -448 0
-433 -463 0
-433 -478 0
-433 -493 0
-433 -508 0
-448 -463 0
-448 -478 0
-448 -493 0
-448 -508 0
-463 -478 0
-463 -493 0
-463 -508 0
-478 -493 0
-478 -508 0
-493 -508 0
-404 -419 0
-404 -434 0
-404 -449 0
-404 -464 0
-404 -479 0
-404 -494 0
-404 -509 0
-419 -434 0
-419 -449 0
-419 -464 0
-419 -479 0
-419 -494 0
-419 -509 0
-434 -449 0
-434 -464 0
-434 -479 0
-434 -494 0
-434 -509 0
-449 -464 0
-449 -479 0
-449 -494 0
-449 -509 0
-464 -479 0
-464 -494 0
-464 -509 0
-479 -494 0
-479 -509 0
-494 -509 0
-405 -420 0
-405 -435 0
-405 -450 0
-405 -465 0
-405 -480 0
-405 -495 0
-405 -510 0
-420 -435 0
-420 -450 0
-420 -465 0
-420 -480 0
-420 -495 0
-420 -510 0
-435 -450 0
-435 -465 0
-435 -480 0
-435 -495 0
-435 -510 0
-450 -465 0
-450 -480 0
-450 -495 0
-450 -510 0
-465 -480 0
-465 -495 0
-465 -510 0
-480 -495 0
-480 -510 0
-495 -510 0
-406 -421 0
-406 -436 0
-406 -451 0
-406 -466 0
-406 -481 0
-406 -496 0
-406 -511 0
-421 -436 0
-421 -451 0
-421 -466 0
-421 -481 0
-421 -496 0
-421 -511 0
-436 -451 0
-436 -466 0
-436 -481 0
-436 -496 0
-436 -511 0
-451 -466 0
-451 -481 0
-451 -496 0
-451 -511 0
-466 -481 0
-466 -496 0
-466 -511 0
-481 -496 0
-481 -511 0
-496 -511 0
-407 -422 0
-407 -437 0
-407 -452 0
-407 -467 0
-407 -482 0
-407 -497 0
-407 -512 0
-422 -437 0
-422 -452 0
-422 -467 0
-422 -482 0
-422 -497 0
-422 -512 0
-437 -452 0
-437 -467 0
-437 -482 0
-437 -497 0
-437 -512 0
-452 -467 0
-452 -482 0
-452 -497 0
-452 -512 0
-467 -482 0
-467 -497 0
-467 -512 0
-482 -497 0
-482 -512 0
-497 -512 0
-408 -423 0
-408 -438 0
-408 -453 0
-408 -468 0
-408 -483 0
-408 -498 0
-408 -513 0
-423 -438 0
-423 -453 0
-423 -468 0
-423 -483 0
-423 -498 0
-423 -513 0
-438 -453 0
-438 -468 0
-438 -483 0
-438 -498 0
-438 -513 0
-453 -468 0
-453 -483 0
-453 -498 0
-453 -513 0
-468 -483 0
-468 -498 0
-468 -513 0
-483 -498 0
-483 -513 0
-498 -513 0
-409 -424 0
-409 -439 0
-409 -454 0
-409 -469 0
-409 -484 0
-409 -499 0
-409 -514 0
-424 -439 0
-424 -454 0
-424 -469 0
-424 -484 0
-424 -499 0
-424 -514 0
-439 -454 0
-439 -469 0
-439 -484 0
-439 -499 0
-439 -514 0
-454 -469 0
-454 -484 0
-454 -499 0
-454 -514 0
-469 -484 0
-469 -499 0
-469 -514 0
-484 -499 0
-484 -514 0
-499 -514 0
-410 -425 0
-410 -440 0
-410 -455 0
-410 -470 0
-410 -485 0
-410 -500 0
-410 -515 0
-425 -440 0
-425 -455 0
-425 -470 0
-425 -485 0
-425 -500 0
-425 -515 0
-440 -455 0
-440 -470 0
-440 -485 0
-440 -500 0
-440 -515 0
-455 -470 0
-455 -485 0
-455 -500 0
-455 -515 0
-470 -485 0
-470 -500 0
-470 -515 0
-485 -500 0
-485 -515 0
-500 -515 0
-411 -426 0
-411 -441 0
-411 -456 0
-411 -471 0
-411 -486 0
-411 -501 0
-411 -516 0
-426 -441 0
-426 -456 0
-426 -471 0
-426 -486 0
-426 -501 0
-426 -516 0
-441 -456 0
-441 -471 0
-441 -486 0
-441 -501 0
-441 -516 0
-456 -471 0
-456 -486 0
-456 -501 0
-456 -516 0
-471 -486 0
-471 -501 0
-471 -516 0
-486 -501 0
-486 -516 0
-501 -516 0
-412 -427 0
-412 -442 0
-412 -457 0
-412 -472 0
-412 -487 0
-412 -502 0
-412 -517 0
-427 -442 0
-427 -457 0
-427 -472 0
-427 -487 0
-427 -502 0
-427 -517 0
-442 -457 0
-442 -472 0
-442 -487 0
-442 -502 0
-442 -517 0
-457 -472 0
-457 -487 0
-457 -502 0
-457 -517 0
-472 -487 0
-472 -502 0
-472 -517 0
-487 -502 0
-487 -517 0
-502 -517 0
-413 -428 0
-413 -443 0
-413 -458 0
-413 -473 0
-413 -488 0
-413 -503 0
-413 -518 0
-428 -443 0
-428 -458 0
-428 -473 0
-428 -488 0
-428 -503 0
-428 -518 0
-443 -458 0
-443 -473 0
-443 -488 0
-443 -503 0
-443 -518 0
-458 -473 0
-458 -488 0
-458 -503 0
-458 -518 0
-473 -488 0
-473 -503 0
-473 -518 0
-488 -503 0
-488 -518 0
-503 -518 0
-414 -429 0
-414 -444 0
-414 -459 0
-414 -474 0
-414 -489 0
-414 -504 0
-414 -519 0
-429 -444 0
-429 -459 0
-429 -474 0
-429 -489 0
-429 -504 0
-429 -519 0
-444 -459 0
-444 -474 0
-444 -489 0
-444 -504 0
-444 -519 0
-459 -474 0
-459 -489 0
-459 -504 0
-459 -519 0
-474 -489 0
-474 -504 0
-474 -519 0
-489 -504 0
-489 -519 0
-504 -519 0
-415 -430 0
-415 -445 0
-415 -460 0
-415 -475 0
-415 -490 0
-415 -505 0
-415 -520 0
-430 -445 0
-430 -460 0
-430 -475 0
-430 -490 0
-430 -505 0
-430 -520 0
-445 -460 0
-445 -475 0
-445 -490 0
-445 -505 0
-445 -520 0
-460 -475 0
-460 -490 0
-460 -505 0
-460 -520 0
-475 -490 0
-475 -505 0
-475 -520 0
-490 -505 0
-490 -520 0
-505 -520 0
401 416 431 446 461 476 491 506 0
402 417 432 447 462 477 492 507 0
403 418 433 448 463 478 493 508 0
404 419 434 449 464 479 494 509 0
405 420 435 450 465 480 495 510 0
406 421 436 451 466 481 496 511 0
407 422 437 452 467 482 497 512 0
408 423 438 453 468 483 498 513 0
409 424 439 454 469 484 499 514 0
410 425 440 455 470 485 500 515 0
411 426 441 456 471 486 501 516 0
412 427 442 457 472 487 502 517 0
413 428 443 458 473 488 503 518 0
414 429 444 459 474 489 504 519 0
415 430 445 460 475 490 505 520 0
-401 -6 -31 0
-401 6 31 0
-416 -31 -56 0
-416 31 56 0
-431 -56 -81 0
-431 56 81 0
-446 -81 -106 0
-446 81 106 0
-461 -106 -131 0
-461 106 131 0
-476 -131 -156 0
-476 131 156 0
-491 -156 -181 0
-491 156 181 0
-506 -181 -206 0
-506 181 206 0
-402 -11 -36 0
-402 11 36 0
-417 -36 -61 0
-417 36 61 0
-432 -61 -86 0
-432 61 86 0
-447 -86 -111 0
-447 86 111 0
-462 -111 -136 0
-462 111 136 0
-477 -136 -161 0
-477 136 161 0
-492 -161 -186 0
-492 161 186 0
-507 -186 -211 0
-507 186 211 0
-403 -16 -41 0
-403 16 41 0
-418 -41 -66 0
-418 41 66 0
-433 -66 -91 0
-433 66 91 0
-448 -91 -116 0
-448 91 116 0
-463 -116 -141 0
-463 116 141 0
-478 -141 -166 0
-478 141 166 0
-493 -166 -191 0
-493 166 191 0
-508 -191 -216 0
-508 191 216 0
-404 -16 -41 0
-404 16 41 0
-419 -41 -66 0
-419 41 66 0
-434 -66 -91 0
-434 66 91 0
-449 -91 -116 0
-449 91 116 0
-464 -116 -141 0
-464 116 141 0
-479 -141 -166 0
-479 141 166 0
-494 -166 -191 0
-494 166 191 0
-509 -191 -216 0
-509 191 216 0
-405 -16 -41 0
-405 16 41 0
-420 -41 -66 0
-420 41 66 0
-435 -66 -91 0
-435 66 91 0
-450 -91 -116 0
-450 91 116 0
-465 -116 -141 0
-465 116 141 0
-480 -141 -166 0
-480 141 166 0
-495 -166 -191 0
-495 166 191 0
-510 -191 -216 0
-510 191 216 0
-406 -21 -46 0
-406 21 46 0
-421 -46 -71 0
-421 46 71 0
-436 -71 -96 0
-436 71 96 0
-451 -96 -121 0
-451 96 121 0
-466 -121 -146 0
-466 121 146 0
-481 -146 -171 0
-481 146 171 0
-496 -171 -196 0
-496 171 196 0
-511 -196 -221 0
-511 196 221 0
-407 -21 -46 0
-407 21 46 0
-422 -46 -71 0
-422 46 71 0
-437 -71 -96 0
-437 71 96 0
-452 -96 -121 0
-452 96 121 0
-467 -121 -146 0
-467 121 146 0
-482 -146 -171 0
-482 146 171 0
-497 -171 -196 0
-497 171 196 0
-512 -196 -221 0
-512 196 221 0
-408 -21 -46 0
-408 21 46 0
-423 -46 -71 0
-423 46 71 0
-438 -71 -96 0
-438 71 96 0
-453 -96 -121 0
-453 96 121 0
-468 -121 -146 0
-468 121 146 0
-483 -146 -171 0
-483 146 171 0
-498 -171 -196 0
-498 171 196 0
-513 -196 -221 0
-513 196 221 0
-409 -12 -37 0
-409 12 37 0
-424 -37 -62 0
-424 37 62 0
-439 -62 -87 0
-439 62 87 0
-454 -87 -112 0
-454 87 112 0
-469 -112 -137 0
-469 112 137 0
-484 -137 -162 0
-484 137 162 0
-499 -162 -187 0
-499 162 187 0
-514 -187 -212 0
-514 187 212 0
-410 -12 -37 0
-410 12 37 0
-425 -37 -62 0
-425 37 62 0
-440 -62 -87 0
-440 62 87 0
-455 -87 -112 0
-455 87 112 0
-470 -112 -137 0
-470 112 137 0
-485 -137 -162 0
-485 137 162 0
-500 -162 -187 0
-500 162 187 0
-515 -187 -212 0
-515 187 212 0
-411 -17 -42 0
-411 17 42 0
-426 -42 -67 0
-426 42 67 0
-441 -67 -92 0
-441 67 92 0
-456 -92 -117 0
-456 92 117 0
-471 -117 -142 0
-471 117 142 0
-486 -142 -167 0
-486 142 167 0
-501 -167 -192 0
-501 167 192 0
-516 -192 -217 0
-516 192 217 0
-412 -18 -43 0
-412 18 43 0
-427 -43 -68 0
-427 43 68 0
-442 -68 -93 0
-442 68 93 0
-457 -93 -118 0
-457 93 118 0
-472 -118 -143 0
-472 118 143 0
-487 -143 -168 0
-487 143 168 0
-502 -168 -193 0
-502 168 193 0
-517 -193 -218 0
-517 193 218 0
-413 -18 -43 0
-413 18 43 0
-428 -43 -68 0
-428 43 68 0
-443 -68 -93 0
-443 68 93 0
-458 -93 -118 0
-458 93 118 0
-473 -118 -143 0
-473 118 143 0
-488 -143 -168 0
-488 143 168 0
-503 -168 -193 0
-503 168 193 0
-518 -193 -218 0
-518 193 218 0
-414 -18 -43 0
-414 18 43 0
-429 -43 -68 0
-429 43 68 0
-444 -68 -93 0
-444 68 93 0
-459 -93 -118 0
-459 93 118 0
-474 -118 -143 0
-474 118 143 0
-489 -143 -168 0
-489 143 168 0
-504 -168 -193 0
-504 168 193 0
-519 -193 -218 0
-519 193 218 0
-415 -23 -48 0
-415 23 48 0
-430 -48 -73 0
-430 48 73 0
-445 -73 -98 0
-445 73 98 0
-460 -98 -123 0
-460 98 123 0
-475 -123 -148 0
-475 123 148 0
-490 -148 -173 0
-490 148 173 0
-505 -173 -198 0
-505 173 198 0
-520 -198 -223 0
-520 198 223 0
-6 31 401 0
6 -31 401 0
-11 36 402 0
11 -36 402 0
-16 41 403 404 405 0
16 -41 403 404 405 0
-21 46 406 407 408 0
21 -46 406 407 408 0
-12 37 409 410 0
12 -37 409 410 0
-17 42 411 0
17 -42 411 0
-22 47 0
22 -47 0
-18 43 412 413 414 0
18 -43 412 413 414 0
-23 48 415 0
23 -48 415 0
-24 49 0
24 -49 0
-31 56 416 0
31 -56 416 0
-36 61 417 0
36 -61 417 0
-41 66 418 419 420 0
41 -66 418 419 420 0
-46 71 421 422 423 0
46 -71 421 422 423 0
-37 62 424 425 0
37 -62 424 425 0
-42 67 426 0
42 -67 426 0
-47 72 0
47 -72 0
-43 68 427 428 429 0
43 -68 427 428 429 0
-48 73 430 0
48 -73 430 0
-49 74 0
49 -74 0
-56 81 431 0
56 -81 431 0
-61 86 432 0
61 -86 432 0
-66 91 433 434 435 0
66 -91 433 434 435 0
-71 96 436 437 438 0
71 -96 436 437 438 0
-62 87 439 440 0
62 -87 439 440 0
-67 92 441 0
67 -92 441 0
-72 97 0
72 -97 0
-68 93 442 443 444 0
68 -93 442 443 444 0
-73 98 445 0
73 -98 445 0
-74 99 0
74 -99 0
-81 106 446 0
81 -106 446 0
-86 111 447 0
86 -111 447 0
-91 116 448 449 450 0
91 -116 448 449 450 0
-96 121 451 452 453 0
96 -121 451 452 453 0
-87 112 454 455 0
87 -112 454 455 0
-92 117 456 0
92 -117 456 0
-97 122 0
97 -122 0
-93 118 457 458 459 0
93 -118 457 458 459 0
-98 123 460 0
98 -123 460 0
-99 124 0
99 -124 0
-106 131 461 0
106 -131 461 0
-111 136 462 0
111 -136 462 0
-116 141 463 464 465 0
116 -141 463 464 465 0
-121 146 466 467 468 0
121 -146 466 467 468 0
-112 137 469 470 0
112 -137 469 470 0
-117 142 471 0
117 -142 471 0
-122 147 0
122 -147 0
-118 143 472 473 474 0
118 -143 472 473 474 0
-123 148 475 0
123 -148 475 0
-124 149 0
124 -149 0
-131 156 476 0
131 -156 476 0
-136 161 477 0
136 -161 477 0
-141 166 478 479 480 0
141 -166 478 479 480 0
-146 171 481 482 483 0
146 -171 481 482 483 0
-137 162 484 485 0
137 -162 484 485 0
-142 167 486 0
142 -167 486 0
-147 172 0
147 -172 0
-143 168 487 488 489 0
143 -168 487 488 489 0
-148 173 490 0
148 -173 490 0
-149 174 0
149 -174 0
-156 181 491 0
156 -181 491 0
-161 186 492 0
161 -186 492 0
-166 191 493 494 495 0
166 -191 493 494 495 0
-171 196 496 497 498 0
171 -196 496 497 498 0
-162 187 499 500 0
162 -187 499 500 0
-167 192 501 0
167 -192 501 0
-172 197 0
172 -197 0
-168 193 502 503 504 0
168 -193 502 503 504 0
-173 198 505 0
173 -198 505 0
-174 199 0
174 -199 0
-181 206 506 0
181 -206 506 0
-186 211 507 0
186 -211 507 0
-191 216 508 509 510 0
191 -216 508 509 510 0
-196 221 511 512 513 0
196 -221 511 512 513 0
-187 212 514 515 0
187 -212 514 515 0
-192 217 516 0
192 -217 516 0
-197 222 0
197 -222 0
-193 218 517 518 519 0
193 -218 517 518 519 0
-198 223 520 0
198 -223 520 0
-199 224 0
199 -224 0
-401 -402 0
-401 -403 0
-401 -404 0
-401 -405 0
-401 -406 0
-401 -407 0
-401 -408 0
-401 -409 0
-401 -410 0
-401 -411 0
-402 -401 0
-402 -403 0
-402 -404 0
-402 -405 0
-402 -406 0
-402 -407 0
-402 -408 0
-402 -409 0
-402 -410 0
-402 -412 0
-402 -413 0
-402 -414 0
-402 -415 0
-403 -401 0
-403 -402 0
-403 -404 0
-403 -405 0
-403 -406 0
-403 -407 0
-403 -408 0
-403 -411 0
-403 -412 0
-403 -413 0
-403 -414 0
-404 -401 0
-404 -402 0
-404 -403 0
-404 -405 0
-404 -406 0
-404 -407 0
-404 -408 0
-404 -411 0
-404 -412 0
-404 -413 0
-404 -414 0
-405 -401 0
-405 -402 0
-405 -403 0
-405 -404 0
-405 -406 0
-405 -407 0
-405 -408 0
-405 -411 0
-405 -412 0
-405 -413 0
-405 -414 0
-406 -401 0
-406 -402 0
-406 -403 0
-406 -404 0
-406 -405 0
-406 -407 0
-406 -408 0
-406 -415 0
-407 -401 0
-407 -402 0
-407 -403 0
-407 -404 0
-407 -405 0
-407 -406 0
-407 -408 0
-407 -415 0
-408 -401 0
-408 -402 0
-408 -403 0
-408 -404 0
-408 -405 0
-408 -406 0
-408 -407 0
-408 -415 0
-409 -401 0
-409 -402 0
-409 -410 0
-409 -411 0
-409 -412 0
-409 -413 0
-409 -414 0
-409 -415 0
-410 -401 0
-410 -402 0
-410 -409 0
-410 -411 0
-410 -412 0
-410 -413 0
-410 -414 0
-410 -415 0
-411 -401 0
-411 -403 0
-411 -404 0
-411 -405 0
-411 -409 0
-411 -410 0
-411 -412 0
-411 -413 0
-411 -414 0
-412 -402 0
-412 -403 0
-412 -404 0
-412 -405 0
-412 -409 0
-412 -410 0
-412 -411 0
-412 -413 0
-412 -414 0
-412 -415 0
-413 -402 0
-413 -403 0
-413 -404 0
-413 -405 0
-413 -409 0
-413 -410 0
-413 -411 0
-413 -412 0
-413 -414 0
-413 -415 0
-414 -402 0
-414 -403 0
-414 -404 0
-414 -405 0
-414 -409 0
-414 -410 0
-414 -411 0
-414 -412 0
-414 -413 0
-414 -415 0
-415 -402 0
-415 -406 0
-415 -407 0
-415 -408 0
-415 -409 0
-415 -410 0
-415 -412 0
-415 -413 0
-415 -414 0
-416 -417 0
-416 -418 0
-416 -419 0
-416 -420 0
-416 -421 0
-416 -422 0
-416 -423 0
-416 -424 0
-416 -425 0
-416 -426 0
-417 -416 0
-417 -418 0
-417 -419 0
-417 -420 0
-417 -421 0
-417 -422 0
-417 -423 0
-417 -424 0
-417 -425 0
-417 -427 0
-417 -428 0
-417 -429 0
-417 -430 0
-418 -416 0
-418 -417 0
-418 -419 0
-418 -420 0
-418 -421 0
-418 -422 0
-418 -423 0
-418 -426 0
-418 -427 0
-418 -428 0
-418 -429 0
-419 -416 0
-419 -417 0
-419 -418 0
-419 -420 0
-419 -421 0
-419 -422 0
-419 -423 0
-419 -426 0
-419 -427 0
-419 -428 0
-419 -429 0
-420 -416 0
-420 -417 0
-420 -418 0
-420 -419 0
-420 -421 0
-420 -422 0
-420 -423 0
-420 -426 0
-420 -427 0
-420 -428 0
-420 -429 0
-421 -416 0
-421 -417 0
-421 -418 0
-421 -419 0
-421 -420 0
-421 -422 0
-421 -423 0
-421 -430 0
-422 -416 0
-422 -417 0
-422 -418 0
-422 -419 0
-422 -420 0
-422 -421 0
-422 -423 0
-422 -430 0
-423 -416 0
-423 -417 0
-423 -418 0
-423 -419 0
-423 -420 0
-423 -421 0
-423 -422 0
-423 -430 0
-424 -416 0
-424 -417 0
-424 -425 0
-424 -426 0
-424 -427 0
-424 -428 0
-424 -429 0
-424 -430 0
-425 -416 0
-425 -417 0
-425 -424 0
-425 -426 0
-425 -427 0
-425 -428 0
-425 -429 0
-425 -430 0
-426 -416 0
-426 -418 0
-426 -419 0
-426 -420 0
-426 -424 0
-426 -425 0
-426 -427 0
-426 -428 0
-426 -429 0
-427 -417 0
-427 -418 0
-427 -419 0
-427 -420 0
-427 -424 0
-427 -425 0
-427 -426 0
-427 -428 0
-427 -429 0
-427 -430 0
-428 -417 0
-428 -418 0
-428 -419 0
-428 -420 0
-428 -424 0
-428 -425 0
-428 -426 0
-428 -427 0
-428 -429 0
-428 -430 0
-429 -417 0
-429 -418 0
-429 -419 0
-429 -420 0
-429 -424 0
-429 -425 0
-429 -426 0
-429 -427 0
-429 -428 0
-429 -430 0
-430 -417 0
-430 -421 0
-430 -422 0
-430 -423 0
-430 -424 0
-430 -425 0
-430 -427 0
-430 -428 0
-430 -429 0
-431 -432 0
-431 -433 0
-431 -434 0
-431 -435 0
-431 -436 0
-431 -437 0
-431 -438 0
-431 -439 0
-431 -440 0
-431 -441 0
-432 -431 0
-432 -433 0
-432 -434 0
-432 -435 0
-432 -436 0
-432 -437 0
-432 -438 0
-432 -439 0
-432 -440 0
-432 -442 0
-432 -443 0
-432 -444 0
-432 -445 0
-433 -431 0
-433 -432 0
-433 -434 0
-433 -435 0
-433 -436 0
-433 -437 0
-433 -438 0
-433 -441 0
-433 -442 0
-433 -443 0
-433 -444 0
-434 -431 0
-434 -432 0
-434 -433 0
-434 -435 0
-434 -436 0
-434 -437 0
-434 -438 0
-434 -441 0
-434 -442 0
-434 -443 0
-434 -444 0
-435 -431 0
-435 -432 0
-435 -433 0
-435 -434 0
-435 -436 0
-435 -437 0
-435 -438 0
-435 -441 0
-435 -442 0
-435 -443 0
-435 -444 0
-436 -431 0
-436 -432 0
-436 -433 0
-436 -434 0
-436 -435 0
-436 -437 0
-436 -438 0
-436 -445 0
-437 -431 0
-437 -432 0
-437 -433 0
-437 -434 0
-437 -435 0
-437 -436 0
-437 -438 0
-437 -445 0
-438 -431 0
-438 -432 0
-438 -433 0
-438 -434 0
-438 -435 0
-438 -436 0
-438 -437 0
-438 -445 0
-439 -431 0
-439 -432 0
-439 -440 0
-439 -441 0
-439 -442 0
-439 -443 0
-439 -444 0
-439 -445 0
-440 -431 0
-440 -432 0
-440 -439 0
-440 -441 0
-440 -442 0
-440 -443 0
-440 -444 0
-440 -445 0
-441 -431 0
-441 -433 0
-441 -434 0
-441 -435 0
-441 -439 0
-441 -440 0
-441 -442 0
-441 -443 0
-441 -444 0
-442 -432 0
-442 -433 0
-442 -434 0
-442 -435 0
-442 -439 0
-442 -440 0
-442 -441 0
-442 -443 0
-442 -444 0
-442 -445 0
-443 -432 0
-443 -433 0
-443 -434 0
-443 -435 0
-443 -439 0
-443 -440 0
-443 -441 0
-443 -442 0
-443 -444 0
-443 -445 0
-444 -432 0
-444 -433 0
-444 -434 0
-444 -435 0
-444 -439 0
-444 -440 0
-444 -441 0
-444 -442 0
-444 -443 0
-444 -445 0
-445 -432 0
-445 -436 0
-445 -437 0
-445 -438 0
-445 -439 0
-445 -440 0
-445 -442 0
-445 -443 0
-445 -444 0
-446 -447 0
-446 -448 0
-446 -449 0
-446 -450 0
-446 -451 0
-446 -452 0
-446 -453 0
-446 -454 0
-446 -455 0
-446 -456 0
-447 -446 0
-447 -448 0
-447 -449 0
-447 -450 0
-447 -451 0
-447 -452 0
-447 -453 0
-447 -454 0
-447 -455 0
-447 -457 0
-447 -458 0
-447 -459 0
-447 -460 0
-448 -446 0
-448 -447 0
-448 -449 0
-448 -450 0
-448 -451 0
-448 -452 0
-448 -453 0
-448 -456 0
-448 -457 0
-448 -458 0
-448 -459 0
-449 -446 0
-449 -447 0
-449 -448 0
-449 -450 0
-449 -451 0
-449 -452 0
-449 -453 0
-449 -456 0
-449 -457 0
-449 -458 0
-449 -459 0
-450 -446 0
-450 -447 0
-450 -448 0
-450 -449 0
-450 -451 0
-450 -452 0
-450 -453 0
-450 -456 0
-450 -457 0
-450 -458 0
-450 -459 0
-451 -446 0
-451 -447 0
-451 -448 0
-451 -449 0
-451 -450 0
-451 -452 0
-451 -453 0
-451 -460 0
-452 -446 0
-452 -447 0
-452 -448 0
-452 -449 0
-452 -450 0
-452 -451 0
-452 -453 0
-452 -460 0
-453 -446 0
-453 -447 0
-453 -448 0
-453 -449 0
-453 -450 0
-453 -451 0
-453 -452 0
-453 -460 0
-454 -446 0
-454 -447 0
-454 -455 0
-454 -456 0
-454 -457 0
-454 -458 0
-454 -459 0
-454 -460 0
-455 -446 0
-455 -447 0
-455 -454 0
-455 -456 0
-455 -457 0
-455 -458 0
-455 -459 0
-455 -460 0
-456 -446 0
-456 -448 0
-456 -449 0
-456 -450 0
-456 -454 0
-456 -455 0
-456 -457 0
-456 -458 0
-456 -459 0
-457 -447 0
-457 -448 0
-457 -449 0
-457 -450 0
-457 -454 0
-457 -455 0
-457 -456 0
-457 -458 0
-457 -459 0
-457 -460 0
-458 -447 0
-458 -448 0
-458 -449 0
-458 -450 0
-458 -454 0
-458 -455 0
-458 -456 0
-458 -457 0
-458 -459 0
-458 -460 0
-459 -447 0
-459 -448 0
-459 -449 0
-459 -450 0
-459 -454 0
-459 -455 0
-459 -456 0
-459 -457 0
-459 -458 0
-459 -460 0
-460 -447 0
-460 -451 0
-460 -452 0
-460 -453 0
-460 -454 0
-460 -455 0
-460 -457 0
-460 -458 0
-460 -459 0
-461 -462 0
-461 -463 0
-461 -464 0
-461 -465 0
-461 -466 0
-461 -467 0
-461 -468 0
-461 -469 0
-461 -470 0
-461 -471 0
-462 -461 0
-462 -463 0
-462 -464 0
-462 -465 0
-462 -466 0
-462 -467 0
-462 -468 0
-462 -469 0
-462 -470 0
-462 -472 0
-462 -473 0
-462 -474 0
-462 -475 0
-463 -461 0
-463 -462 0
-463 -464 0
-463 -465 0
-463 -466 0
-463 -467 0
-463 -468 0
-463 -471 0
-463 -472 0
-463 -473 0
-463 -474 0
-464 -461 0
-464 -462 0
-464 -463 0
-464 -465 0
-464 -466 0
-464 -467 0
-464 -468 0
-464 -471 0
-464 -472 0
-464 -473 0
-464 -474 0
-465 -461 0
-465 -462 0
-465 -463 0
-465 -464 0
-465 -466 0
-465 -467 0
-465 -468 0
-465 -471 0
-465 -472 0
-465 -473 0
-465 -474 0
-466 -461 0
-466 -462 0
-466 -463 0
-466 -464 0
-466 -465 0
-466 -467 0
-466 -468 0
-466 -475 0
-467 -461 0
-467 -462 0
-467 -463 0
-467 -464 0
-467 -465 0
-467 -466 0
-467 -468 0
-467 -475 0
-468 -461 0
-468 -462 0
-468 -463 0
-468 -464 0
-468 -465 0
-468 -466 0
-468 -467 0
-468 -475 0
-469 -461 0
-469 -462 0
-469 -470 0
-469 -471 0
-469 -472 0
-469 -473 0
-469 -474 0
-469 -475 0
-470 -461 0
-470 -462 0
-470 -469 0
-470 -471 0
-470 -472 0
-470 -473 0
-470 -474 0
-470 -475 0
-471 -461 0
-471 -463 0
-471 -464 0
-471 -465 0
-471 -469 0
-471 -470 0
-471 -472 0
-471 -473 0
-471 -474 0
-472 -462 0
-472 -463 0
-472 -464 0
-472 -465 0
-472 -469 0
-472 -470 0
-472 -471 0
-472 -473 0
-472 -474 0
-472 -475 0
-473 -462 0
-473 -463 0
-473 -464 0
-473 -465 0
-473 -469 0
-473 -470 0
-473 -471 0
-473 -472 0
-473 -474 0
-473 -475 0
-474 -462 0
-474 -463 0
-474 -464 0
-474 -465 0
-474 -469 0
-474 -470 0
-474 -471 0
-474 -472 0
-474 -473 0
-474 -475 0
-475 -462 0
-475 -466 0
-475 -467 0
-475 -468 0
-475 -469 0
-475 -470 0
-475 -472 0
-475 -473 0
-475 -474 0
-476 -477 0
-476 -478 0
-476 -479 0
-476 -480 0
-476 -481 0
-476 -482 0
-476 -483 0
-476 -484 0
-476 -485 0
-476 -486 0
-477 -476 0
-477 -478 0
-477 -479 0
-477 -480 0
-477 -481 0
-477 -482 0
-477 -483 0
-477 -484 0
-477 -485 0
-477 -487 0
-477 -488 0
-477 -489 0
-477 -490 0
-478 -476 0
-478 -477 0
-478 -479 0
-478 -480 0
-478 -481 0
-478 -482 0
-478 -483 0
-478 -486 0
-478 -487 0
-478 -488 0
-478 -489 0
-479 -476 0
-479 -477 0
-479 -478 0
-479 -480 0
-479 -481 0
-479 -482 0
-479 -483 0
-479 -486 0
-479 -487 0
-479 -488 0
-479 -489 0
-480 -476 0
-480 -477 0
-480 -478 0
-480 -479 0
-480 -481 0
-480 -482 0
-480 -483 0
-480 -486 0
-480 -487 0
-480 -488 0
-480 -489 0
-481 -476 0
-481 -477 0
-481 -478 0
-481 -479 0
-481 -480 0
-481 -482 0
-481 -483 0
-481 -490 0
-482 -476 0
-482 -477 0
-482 -478 0
-482 -479 0
-482 -480 0
-482 -481 0
-482 -483 0
-482 -490 0
-483 -476 0
-483 -477 0
-483 -478 0
-483 -479 0
-483 -480 0
-483 -481 0
-483 -482 0
-483 -490 0
-484 -476 0
-484 -477 0
-484 -485 0
-484 -486 0
-484 -487 0
-484 -488 0
-484 -489 0
-484 -490 0
-485 -476 0
-485 -477 0
-485 -484 0
-485 -486 0
-485 -487 0
-485 -488 0
-485 -489 0
-485 -490 0
-486 -476 0
-486 -478 0
-486 -479 0
-486 -480 0
-486 -484 0
-486 -485 0
-486 -487 0
-486 -488 0
-486 -489 0
-487 -477 0
-487 -478 0
-487 -479 0
-487 -480 0
-487 -484 0
-487 -485 0
-487 -486 0
-487 -488 0
-487 -489 0
-487 -490 0
-488 -477 0
-488 -478 0
-488 -479 0
-488 -480 0
-488 -484 0
-488 -485 0
-488 -486 0
-488 -487 0
-488 -489 0
-488 -490 0
-489 -477 0
-489 -478 0
-489 -479 0
-489 -480 0
-489 -484 0
-489 -485 0
-489 -486 0
-489 -487 0
-489 -488 0
-489 -490 0
-490 -477 0
-490 -481 0
-490 -482 0
-490 -483 0
-490 -484 0
-490 -485 0
-490 -487 0
-490 -488 0
-490 -489 0
-491 -492 0
-491 -493 0
-491 -494 0
-491 -495 0
-491 -496 0
-491 -497 0
-491 -498 0
-491 -499 0
-491 -500 0
-491 -501 0
-492 -491 0
-492 -493 0
-492 -494 0
-492 -495 0
-492 -496 0
-492 -497 0
-492 -498 0
-492 -499 0
-492 -500 0
-492 -502 0
-492 -503 0
-492 -504 0
-492 -505 0
-493 -491 0
-493 -492 0
-493 -494 0
-493 -495 0
-493 -496 0
-493 -497 0
-493 -498 0
-493 -501 0
-493 -502 0
-493 -503 0
-493 -504 0
-494 -491 0
-494 -492 0
-494 -493 0
-494 -495 0
-494 -496 0
-494 -497 0
-494 -498 0
-494 -501 0
-494 -502 0
-494 -503 0
-494 -504 0
-495 -491 0
-495 -492 0
-495 -493 0
-495 -494 0
-495 -496 0
-495 -497 0
-495 -498 0
-495 -501 0
-495 -502 0
-495 -503 0
-495 -504 0
-496 -491 0
-496 -492 0
-496 -493 0
-496 -494 0
-496 -495 0
-496 -497 0
-496 -498 0
-496 -505 0
-497 -491 0
-497 -492 0
-497 -493 0
-497 -494 0
-497 -495 0
-497 -496 0
-497 -498 0
-497 -505 0
-498 -491 0
-498 -492 0
-498 -493 0
-498 -494 0
-498 -495 0
-498 -496 0
-498 -497 0
-498 -505 0
-499 -491 0
-499 -492 0
-499 -500 0
-499 -501 0
-499 -502 0
-499 -503 0
-499 -504 0
-499 -505 0
-500 -491 0
-500 -492 0
-500 -499 0
-500 -501 0
-500 -502 0
-500 -503 0
-500 -504 0
-500 -505 0
-501 -491 0
-501 -493 0
-501 -494 0
-501 -495 0
-501 -499 0
-501 -500 0
-501 -502 0
-501 -503 0
-501 -504 0
-502 -492 0
-502 -493 0
-502 -494 0
-502 -495 0
-502 -499 0
-502 -500 0
-502 -501 0
-502 -503 0
-502 -504 0
-502 -505 0
-503 -492 0
-503 -493 0
-503 -494 0
-503 -495 0
-503 -499 0
-503 -500 0
-503 -501 0
-503 -502 0
-503 -504 0
-503 -505 0
-504 -492 0
-504 -493 0
-504 -494 0
-504 -495 0
-504 -499 0
-504 -500 0
-504 -501 0
-504 -502 0
-504 -503 0
-504 -505 0
-505 -492 0
-505 -496 0
-505 -497 0
-505 -498 0
-505 -499 0
-505 -500 0
-505 -502 0
-505 -503 0
-505 -504 0
-506 -507 0
-506 -508 0
-506 -509 0
-506 -510 0
-506 -511 0
-506 -512 0
-506 -513 0
-506 -514 0
-506 -515 0
-506 -516 0
-507 -506 0
-507 -508 0
-507 -509 0
-507 -510 0
-507 -511 0
-507 -512 0
-507 -513 0
-507 -514 0
-507 -515 0
-507 -517 0
-507 -518 0
-507 -519 0
-507 -520 0
-508 -506 0
-508 -507 0
-508 -509 0
-508 -510 0
-508 -511 0
-508 -512 0
-508 -513 0
-508 -516 0
-508 -517 0
-508 -518 0
-508 -519 0
-509 -506 0
-509 -507 0
-509 -508 0
-509 -510 0
-509 -511 0
-509 -512 0
-509 -513 0
-509 -516 0
-509 -517 0
-509 -518 0
-509 -519 0
-510 -506 0
-510 -507 0
-510 -508 0
-510 -509 0
-510 -511 0
-510 -512 0
-510 -513 0
-510 -516 0
-510 -517 0
-510 -518 0
-510 -519 0
-511 -506 0
-511 -507 0
-511 -508 0
-511 -509 0
-511 -510 0
-511 -512 0
-511 -513 0
-511 -520 0
-512 -506 0
-512 -507 0
-512 -508 0
-512 -509 0
-512 -510 0
-512 -511 0
-512 -513 0
-512 -520 0
-513 -506 0
-513 -507 0
-513 -508 0
-513 -509 0
-513 -510 0
-513 -511 0
-513 -512 0
-513 -520 0
-514 -506 0
-514 -507 0
-514 -515 0
-514 -516 0
-514 -517 0
-514 -518 0
-514 -519 0
-514 -520 0
-515 -506 0
-515 -507 0
-515 -514 0
-515 -516 0
-515 -517 0
-515 -518 0
-515 -519 0
-515 -520 0
-516 -506 0
-516 -508 0
-516 -509 0
-516 -510 0
-516 -514 0
-516 -515 0
-516 -517 0
-516 -518 0
-516 -519 0
-517 -507 0
-517 -508 0
-517 -509 0
-517 -510 0
-517 -514 0
-517 -515 0
-517 -516 0
-517 -518 0
-517 -519 0
-517 -520 0
-518 -507 0
-518 -508 0
-518 -509 0
-518 -510 0
-518 -514 0
-518 -515 0
-518 -516 0
-518 -517 0
-518 -519 0
-518 -520 0
-519 -507 0
-519 -508 0
-519 -509 0
-519 -510 0
-519 -514 0
-519 -515 0
-519 -516 0
-519 -517 0
-519 -518 0
-519 -520 0
-520 -507 0
-520 -511 0
-520 -512 0
-520 -513 0
-520 -514 0
-520 -515 0
-520 -517 0
-520 -518 0
-520 -519 0